************************************************************************
file with basedata            : cm226_.bas
initial value random generator: 796780996
************************************************************************
projects                      :  1
jobs (incl. supersource/sink ):  18
horizon                       :  107
RESOURCES
  - renewable                 :  2   R
  - nonrenewable              :  2   N
  - doubly constrained        :  0   D
************************************************************************
PROJECT INFORMATION:
pronr.  #jobs rel.date duedate tardcost  MPM-Time
    1     16      0       21        3       21
************************************************************************
PRECEDENCE RELATIONS:
jobnr.    #modes  #successors   successors
   1        1          3           2   3   4
   2        2          3           5   6  11
   3        2          3           8  14  17
   4        2          2           9  12
   5        2          3           7  12  17
   6        2          2          10  14
   7        2          2          14  16
   8        2          3           9  10  12
   9        2          3          11  13  15
  10        2          1          13
  11        2          1          16
  12        2          2          13  15
  13        2          1          16
  14        2          1          15
  15        2          1          18
  16        2          1          18
  17        2          1          18
  18        1          0        
************************************************************************
REQUESTS/DURATIONS:
jobnr. mode duration  R 1  R 2  N 1  N 2
------------------------------------------------------------------------
  1      1     0       0    0    0    0
  2      1     3       8    0    0    5
         2     9       6    0    5    0
  3      1     3       4    0    8    0
         2     3       5    0    0    2
  4      1     7       0    3    8    0
         2     9       0    3    6    0
  5      1     5       3    0    0    7
         2     8       0    8    0    5
  6      1     6       0    2    0    9
         2     6       0    1    6    0
  7      1     2       8    0    0    7
         2    10       3    0    0    6
  8      1     3       0    9   10    0
         2     3       5    0    0    4
  9      1     3       5    0    6    0
         2     9       0    5    0    1
 10      1     3       5    0    0    7
         2     7       0    6    5    0
 11      1     2       7    0    0    9
         2     7       5    0    5    0
 12      1     2       7    0    5    0
         2     4       0    4    5    0
 13      1     4       0    4   10    0
         2     7       4    0   10    0
 14      1     6      10    0    6    0
         2    10       9    0    0    5
 15      1     1       8    0   10    0
         2     8       4    0    9    0
 16      1     5       0    5    9    0
         2     6       6    0    4    0
 17      1     1       0    5    9    0
         2     1       7    0    0    3
 18      1     0       0    0    0    0
************************************************************************
RESOURCEAVAILABILITIES:
  R 1  R 2  N 1  N 2
   18   13  102   59
************************************************************************
